92	0

0	2	2	3
3	3	4	5	6
8	3	7	8	15
8	5	16	19	27	30	32
5	3	7	8	15
2	3	7	8	15
1	4	9	10	18	22
1	4	9	10	18	22
1	7	11	12	13	14	16	17	32
1	7	11	12	13	14	16	17	32
10	3	26	28	44
3	10	19	20	21	23	24	25	27	29	30	35
5	9	19	20	21	23	24	25	29	30	35
6	7	20	21	23	24	25	29	35
4	5	16	19	27	30	32
4	7	20	21	23	24	25	29	35
3	10	19	20	21	23	24	25	27	29	30	35
7	7	20	21	23	24	25	29	35
4	5	26	28	31	33	44
2	5	26	28	31	33	44
9	5	34	37	38	39	45
10	5	26	28	31	33	44
10	3	37	38	45
4	3	26	28	44
1	5	26	28	31	33	44
2	8	34	36	37	38	39	40	45	47
10	6	34	37	38	39	45	47
1	8	34	36	37	38	39	40	45	47
5	8	34	36	37	38	39	40	45	47
9	5	34	37	38	39	45
6	5	34	37	38	39	45
9	8	34	36	37	38	39	40	45	47
10	6	48	49	50	51	52	56
6	4	53	54	55	61
10	3	37	38	45
6	3	41	42	50
2	3	41	42	50
1	4	41	42	43	46
2	4	41	42	43	46
6	3	41	42	50
2	7	48	49	51	52	53	56	61
2	7	48	49	51	52	53	56	61
2	6	48	49	50	51	52	56
9	6	48	49	50	51	52	56
4	7	48	49	51	52	53	56	61
9	2	54	55
9	4	53	54	55	61
6	2	54	55
7	1	55
4	4	53	54	55	61
8	2	57	59
10	4	58	60	62	69
7	4	58	60	62	69
3	2	57	59
2	2	57	59
9	2	57	59
1	4	58	60	62	69
9	3	71	72	73
6	3	66	68	74
1	2	63	64
9	2	63	64
3	1	65
1	1	65
7	3	71	72	73
1	4	66	67	68	74
9	2	80	82
7	1	77
1	6	70	71	72	73	76	78
7	5	70	71	72	73	76
10	2	80	82
4	3	80	81	82
1	2	75	77
1	2	75	77
5	2	75	77
9	2	83	84
5	2	79	81
1	2	79	81
6	2	79	81
5	2	80	82
1	3	83	84	85
6	2	83	84
1	3	83	84	85
6	2	86	87
10	2	87	88
5	2	86	87
6	1	88
10	1	89
5	1	89
5	1	90
2	1	91
1	1	92
0	0
